
Gurobi 10.0.3 (linux64, gurobi_cl) logging started Thu Nov  9 11:48:53 2023

Set parameter Username
Set parameter TimeLimit to value 3600
Set parameter LogFile to value "RCPSP_1202.log"
Set parameter Threads to value 32
Academic license - for non-commercial use only - expires 2024-10-30
Using license file /home/jrivera6/gurobi-licenses/v1003/compute-0-38/gurobi.lic

Gurobi Optimizer version 10.0.3 build v10.0.3rc0 (linux64)
Copyright (c) 2023, Gurobi Optimization, LLC

Read MPS format model from file RCPSP_1202.mps
Reading time = 0.05 seconds
RCPSP_1202: 42947 rows, 17020 columns, 151052 nonzeros

CPU model: Intel(R) Xeon(R) Gold 6242 CPU @ 2.80GHz, instruction set [SSE2|AVX|AVX2|AVX512]
Thread count: 32 physical cores, 32 logical processors, using up to 32 threads

Optimize a model with 42947 rows, 17020 columns and 151052 nonzeros
Model fingerprint: 0x925208b5
Variable types: 92 continuous, 16928 integer (16928 binary)
Coefficient statistics:
  Matrix range     [1e+00, 5e+02]
  Objective range  [1e+00, 1e+00]
  Bounds range     [1e+00, 1e+00]
  RHS range        [1e+00, 5e+02]
Presolve removed 7032 rows and 1201 columns (presolve time = 5s) ...
Presolve removed 11082 rows and 2901 columns
Presolve time: 7.13s
Presolved: 31865 rows, 14119 columns, 117278 nonzeros
Variable types: 91 continuous, 14028 integer (14028 binary)

Deterministic concurrent LP optimizer: primal and dual simplex (primal and dual model)
Showing first log only...

Root relaxation presolved: 31865 rows, 14119 columns, 117278 nonzeros


Root simplex log...

Iteration    Objective       Primal Inf.    Dual Inf.      Time
       0    8.4715215e+01   7.132990e-03   1.743945e+08      8s
Concurrent spin time: 0.34s

Solved with dual simplex (primal model)

Root relaxation: objective 8.300000e+01, 4702 iterations, 1.44 seconds (0.12 work units)
Total elapsed time = 10.83s

    Nodes    |    Current Node    |     Objective Bounds      |     Work
 Expl Unexpl |  Obj  Depth IntInf | Incumbent    BestBd   Gap | It/Node Time

     0     0   83.00000    0  540          -   83.00000      -     -   15s
     0     0   83.00000    0 1105          -   83.00000      -     -   50s
     0     0   83.00000    0 1027          -   83.00000      -     -   52s
     0     0   83.00000    0 1090          -   83.00000      -     -   54s
     0     0   83.00000    0 1078          -   83.00000      -     -   54s
     0     0   83.83333    0  927          -   83.83333      -     -   63s
     0     0   83.83333    0  923          -   83.83333      -     -   63s
     0     0   83.83333    0 1181          -   83.83333      -     -   65s
     0     0   83.83333    0 1091          -   83.83333      -     -   65s
     0     0   83.83333    0 1172          -   83.83333      -     -   68s
     0     0   83.83333    0 1163          -   83.83333      -     -   69s
     0     0   83.83333    0 1314          -   83.83333      -     -   72s
     0     0   83.83333    0 1253          -   83.83333      -     -   72s
     0     0   83.83333    0 1281          -   83.83333      -     -   77s
     0     0   83.83333    0 1253          -   83.83333      -     -   78s
     0     0   83.83333    0 1371          -   83.83333      -     -   85s
     0     0   83.83333    0 1252          -   83.83333      -     -   85s
H    0     0                     519.0000000   83.83333  83.8%     -   86s
     0     0   83.83333    0 1298  519.00000   83.83333  83.8%     -   86s
     0     0   83.83333    0  700  519.00000   83.83333  83.8%     -  104s
     0     0   83.83333    0  696  519.00000   83.83333  83.8%     -  104s
     0     0   83.83333    0 1243  519.00000   83.83333  83.8%     -  128s
     0     0   83.83333    0 1239  519.00000   83.83333  83.8%     -  128s
H    0     0                     436.0000000   83.83333  80.8%     -  136s
H    0     0                     427.0000000   83.83333  80.4%     -  136s
H    0     0                     421.0000000   83.83333  80.1%     -  136s
     0     0   83.83333    0 1323  421.00000   83.83333  80.1%     -  137s
     0     0   83.83333    0 1311  421.00000   83.83333  80.1%     -  138s
     0     0   83.83333    0 1311  421.00000   83.83333  80.1%     -  138s
     0     0   83.83333    0 1428  421.00000   83.83333  80.1%     -  139s
     0     0   83.83333    0 1245  421.00000   83.83333  80.1%     -  139s
     0     0   84.00000    0 1232  421.00000   84.00000  80.0%     -  144s
H    0     0                     360.0000000   84.00000  76.7%     -  146s
     0     0   84.00000    0 1331  360.00000   84.00000  76.7%     -  147s
     0     0   84.00000    0 1258  360.00000   84.00000  76.7%     -  148s
H    0     0                     339.0000000   84.00000  75.2%     -  151s
     0     0   84.00002    0 1324  339.00000   84.00002  75.2%     -  151s
H    0     0                     320.0000000   84.00002  73.7%     -  155s
     0     0   84.00002    0 1271  320.00000   84.00002  73.7%     -  155s
     0     0   84.00002    0 1220  320.00000   84.00002  73.7%     -  156s
     0     0   84.00002    0 1216  320.00000   84.00002  73.7%     -  156s
     0     0   84.00002    0 1343  320.00000   84.00002  73.7%     -  160s
H    0     0                     289.0000000   84.00002  70.9%     -  162s
     0     0   84.00002    0 1373  289.00000   84.00002  70.9%     -  170s
     0     0   84.00002    0 1294  289.00000   84.00002  70.9%     -  171s
     0     0   84.00002    0 1292  289.00000   84.00002  70.9%     -  171s
H    0     0                     274.0000000   84.00002  69.3%     -  179s
     0     0   84.00002    0 1378  274.00000   84.00002  69.3%     -  179s
     0     0   84.00002    0 1375  274.00000   84.00002  69.3%     -  180s
     0     0   84.00002    0 1328  274.00000   84.00002  69.3%     -  187s
     0     0   84.00002    0 1280  274.00000   84.00002  69.3%     -  187s
H    0     0                     244.0000000   84.00002  65.6%     -  198s
     0     0   84.00002    0 1364  244.00000   84.00002  65.6%     -  198s
     0     0   84.00002    0  868  244.00000   84.00002  65.6%     -  204s
H    0     0                     239.0000000   84.00002  64.9%     -  210s
H    0     0                     225.0000000   84.00002  62.7%     -  210s
     0     2   84.00002    0  517  225.00000   84.00002  62.7%     -  224s
     1     4   84.00003    1  589  225.00000   84.00003  62.7%  8157  227s
     3     8   84.06331    2  862  225.00000   84.00020  62.7%  3124  235s
     7    16   84.11242    3 1114  225.00000   84.00168  62.7%  2177  247s
    15    24   84.37500    4 1086  225.00000   84.18841  62.6%  2060  260s
H   31    42                     217.0000000   84.42951  61.1%  1604  309s
H   32    42                     211.0000000   84.42951  60.0%  1618  309s
H   33    42                     206.0000000   84.42951  59.0%  1592  309s
    55    68   94.00000    6 1024  206.00000   84.52778  59.0%  1520  326s
    87    92   94.00000    7  946  206.00000   84.71429  58.9%  1492  340s
   119   124   94.15385    7 1000  206.00000   84.90909  58.8%  1374  352s
   151   149   94.00000    8  991  206.00000   84.90909  58.8%  1296  359s
   183   189   94.00000    8  867  206.00000   84.90909  58.8%  1131  370s
   234   229   94.15313    9  868  206.00000   84.90909  58.8%   950  459s
H  282   251                     197.0000000   84.90909  56.9%   833  479s
   327   277  103.15313   11  876  197.00000   84.90909  56.9%   746  492s
   399   304   97.00000   10  823  197.00000   84.90909  56.9%   652  506s
   438   335   97.00000   11  924  197.00000   84.90909  56.9%   654  518s
   488   390   97.00000   12  915  197.00000   84.90909  56.9%   637  527s
H  570   420                     188.0000000   84.90909  54.8%   573  617s
H  577   420                     183.0000000   84.90909  53.6%   573  617s
H  603   449                     166.0000000   84.90909  48.8%   561 1848s
H  604   449                     165.0000000   84.90909  48.5%   561 1848s
H  605   449                     162.0000000   84.90909  47.6%   561 1848s
H  612   449                     156.0000000   84.90909  45.6%   560 1848s
   638   546   97.00000   16  952  156.00000   84.90909  45.6%   564 1858s
   743   615   97.00000   20  913  156.00000   84.90909  45.6%   501 1895s
   827   675   97.00000   22  895  156.00000   84.90909  45.6%   463 1933s
   927   720  100.04082   27  988  156.00000   84.90909  45.6%   429 1967s
   995   792  100.04082   29 1101  156.00000   84.90909  45.6%   426 2043s
  1088   950  103.00000   31 1054  156.00000   84.90909  45.6%   411 2058s
  1281  1122 infeasible   38       156.00000   85.00000  45.5%   365 2068s
  1481  1280   86.35294    8  990  156.00000   85.00000  45.5%   330 2085s
H 1683  1379                     156.0000000   85.00000  45.5%   307 2104s
  1794  1573   93.02797   12  830  156.00000   85.00000  45.5%   296 2124s
  2053  1796   99.00000   21  789  156.00000   85.00000  45.5%   270 2143s
  2303  2012  104.00000   31  753  156.00000   85.00000  45.5%   253 2162s
  2587  2244  109.00000   46  701  156.00000   85.00000  45.5%   237 2185s
  2893  2245  102.00000   65 1298  156.00000   85.00000  45.5%   224 2240s
  2895  2246   95.00000   23  704  156.00000   85.00000  45.5%   223 2251s
  2896  2247   98.00000   18 1134  156.00000   85.00000  45.5%   223 2260s
  2897  2248  101.00000   78 1220  156.00000   85.00000  45.5%   223 2266s
  2898  2248   91.00000   27 1219  156.00000   85.00000  45.5%   223 2285s
  2900  2250   98.00000   46 1181  156.00000   85.00000  45.5%   223 2290s
  2902  2251  103.00000   35 1304  156.00000   85.00000  45.5%   223 2298s
  2903  2252   97.00000   78 1291  156.00000   85.00000  45.5%   223 2302s
  2904  2252  104.00000   22 1315  156.00000   85.00000  45.5%   223 2307s
  2906  2254   93.00000   14 1337  156.00000   85.00000  45.5%   223 2313s
  2907  2254   95.00000   30 1318  156.00000   85.00000  45.5%   223 2326s
  2908  2255   88.00000   27 1334  156.00000   85.00000  45.5%   222 2331s
  2909  2256  107.00000  110 1337  156.00000   85.00000  45.5%   222 2335s
  2911  2257   93.00000   16 1308  156.00000   85.00000  45.5%   222 2343s
  2912  2258  104.00000   57 1279  156.00000   85.00000  45.5%   222 2349s
  2913  2258  107.00000  106 1298  156.00000   85.00000  45.5%   222 2354s
  2914  2259  109.00000   56 1350  156.00000   85.00000  45.5%   222 2360s
  2915  2260   89.00403   16 1316  156.00000   85.00000  45.5%   222 2366s
  2916  2260  102.00000   49 1334  156.00000   85.00000  45.5%   222 2374s
H 2916  2146                     155.0000000   85.00000  45.2%   222 2381s
H 2917  2039                     154.0000000   85.00000  44.8%   222 2394s
  2919  2040   96.00000   32 1298  154.00000   85.00000  44.8%   222 2398s
  2920  2041  103.00000   26 1282  154.00000   85.00000  44.8%   222 2407s
  2921  2042   97.00000   88 1289  154.00000   85.00000  44.8%   221 2418s
  2922  2042  105.00000   51 1358  154.00000   85.00000  44.8%   221 2423s
  2923  2043  110.00000   39 1325  154.00000   85.00000  44.8%   221 2430s
  2924  2044  107.00000   21 1319  154.00000   85.00000  44.8%   221 2438s
H 2924  1942                     154.0000000   85.00000  44.8%   221 2449s
  2926  1943   99.00000   38 1291  154.00000   85.00000  44.8%   221 2456s
  2927  1944   92.00000   63 1304  154.00000   85.00000  44.8%   221 2464s
  2928  1944   94.00000   18 1295  154.00000   85.00000  44.8%   221 2476s
  2929  1945  100.00000   50 1298  154.00000   85.00000  44.8%   221 2485s
  2930  1946   98.00000   46 1326  154.00000   85.00000  44.8%   221 2495s
  2932  1947  102.00000   51  469  154.00000   85.00000  44.8%   221 2505s
  2933  1951   85.00000   10  433  154.00000   85.00000  44.8%   247 2531s
  2935  1954   85.00000   11  450  154.00000   85.00000  44.8%   247 2546s
  2939  1961   85.00000   12  741  154.00000   85.00000  44.8%   247 2566s
  2947  1974   85.00000   13  954  154.00000   85.00000  44.8%   251 2592s
  2963  1999   85.00000   14 1001  154.00000   85.00000  44.8%   259 2693s
H 2988  1892                     153.0000000   85.00000  44.4%   271 2694s
  2995  1920   85.00000   15 1002  153.00000   85.00000  44.4%   275 2733s
H 3027  1845                     148.0000000   85.00000  42.6%   291 3088s
  3059  1863   85.18839   16 1025  148.00000   85.00000  42.6%   303 3112s
  3091  1884   85.00000   17 1012  148.00000   85.00000  42.6%   304 3137s
  3123  1920   91.00000   17  837  148.00000   85.00000  42.6%   307 3168s
  3174  1935   91.00000   18  815  148.00000   85.00000  42.6%   308 3617s
H 3179  1846                     148.0000000   85.00000  42.6%   309 3618s

Cutting planes:
  Gomory: 45
  Lift-and-project: 2
  Cover: 165
  Implied bound: 36
  Projected implied bound: 3
  Clique: 33
  MIR: 317
  StrongCG: 12
  Flow cover: 558
  Zero half: 10
  RLT: 137
  Relax-and-lift: 276

Explored 3206 nodes (1098608 simplex iterations) in 3632.94 seconds (248.70 work units)
Thread count was 32 (of 32 available processors)

Solution count 10: 148 148 153 ... 165

Time limit reached
Best objective 1.479999999702e+02, best bound 8.500000000000e+01, gap 42.5676%

Wrote result file 'RCPSP_1202.sol'

